NAME: random-39-21613
TYPE: TSP
COMMENT: size=39 seed=21613
DIMENSION: 80
EDGE_WEIGHT_TYPE: EUC_2D
NODE_COORD_SECTION
+0 691 863
-0 691 863
+1 532 132
-1 120 430
+2 192 570
-2 384 923
+3 123 437
-3 746 483
+4 716 475
-4 878 888
+5 858 176
-5 954 718
+6 944 893
-6 98 363
+7 678 717
-7 383 307
+8 72 496
-8 54 211
+9 696 181
-9 834 561
+10 438 891
-10 63 514
+11 898 895
-11 567 496
+12 504 337
-12 411 514
+13 71 845
-13 176 464
+14 807 701
-14 340 263
+15 442 370
-15 311 647
+16 385 517
-16 357 337
+17 616 258
-17 487 959
+18 19 719
-18 742 396
+19 580 514
-19 199 135
+20 18 899
-20 303 400
+21 966 453
-21 301 986
+22 616 686
-22 364 259
+23 423 495
-23 551 210
+24 726 592
-24 954 153
+25 149 750
-25 994 26
+26 647 769
-26 227 403
+27 725 21
-27 61 319
+28 743 878
-28 167 921
+29 955 681
-29 175 310
+30 378 143
-30 714 666
+31 875 757
-31 579 195
+32 555 992
-32 456 221
+33 163 201
-33 485 60
+34 435 820
-34 893 388
+35 832 500
-35 101 894
+36 564 672
-36 265 4
+37 852 652
-37 73 590
+38 454 448
-38 649 499
+39 671 355
-39 320 906
PRECEDENCE_SECTION
+0 -0
+1 -1
+2 -2
+3 -3
+4 -4
+5 -5
+6 -6
+7 -7
+8 -8
+9 -9
+10 -10
+11 -11
+12 -12
+13 -13
+14 -14
+15 -15
+16 -16
+17 -17
+18 -18
+19 -19
+20 -20
+21 -21
+22 -22
+23 -23
+24 -24
+25 -25
+26 -26
+27 -27
+28 -28
+29 -29
+30 -30
+31 -31
+32 -32
+33 -33
+34 -34
+35 -35
+36 -36
+37 -37
+38 -38
+39 -39
EOF
